[1, 2, 3, 4, 5, 6, 7, 8, 9, 10, 11, 12, 13, 14, 15, 16, 16, 15, 20, 14, 18, 22, 23, 24, 25, 26, 27, 28, 29, 30, 31, 32, 33, 34, 35, 36, 37, 38, 39, 40, 41, 41, 45, 42, 44, 41, 44, 43, 52, 50, 51, 49, 53, 49, 57, 53, 59, 54, 55, 63, 57, 49, 59, 64, 65, 66, 67, 68, 69, 70, 71, 72, 73, 74, 75, 76, 77, 78, 79, 80, 81, 82, 83, 84, 85, 86, 87, 88, 89, 90, 91, 92, 93, 94, 95, 96, 97, 98, 99, 100, 101, 102, 104, 105, 108, 106, 107, 111, 108, 112, 111, 110, 113, 115, 111, 116, 117, 118, 119, 120, 121, 122, 123, 124, 125, 126, 127, 128, 129, 130, 131, 132, 133, 134, 135, 136, 139, 140, 137, 138, 141, 142, 143, 144, 145, 146, 147, 148, 149, 150, 151, 152, 153, 154, 155, 156, 157, 158, 159, 160, 162, 161, 162, 164, 161, 166, 167, 168, 169, 170, 171, 172, 173, 174, 175, 176, 177, 178, 179, 180, 181, 182, 183, 184, 185, 186, 187, 188, 189, 190, 191, 192, 193, 194, 195, 196, 197, 199, 198, 200, 201, 200, 197, 197, 204, 206, 207, 208, 209, 210, 211, 212, 213, 214, 215, 216, 217, 218, 220, 219, 222, 221, 223, 224, 225, 226, 227, 228, 229, 230, 231, 232, 233, 234, 235, 236, 237, 238, 239, 240, 241, 243, 242, 242, 243, 246, 247, 248, 249, 251, 255, 250, 252, 253, 254, 256, 257, 258, 259, 260, 261, 262, 263, 264, 265, 266, 269, 268, 267, 268, 270, 269, 267, 272, 271, 276, 276, 278, 279, 280]
[1, 2, 4, 5, 6, 7, 8, 10, 11, 13, 13, 14, 14, 15, 15, 19, 21, 22, 23, 24, 26, 27, 28, 29, 32, 33, 34, 36, 37, 38, 39, 40, 40, 40, 41, 42, 43, 43, 44, 48, 48, 48, 49, 50, 51, 52, 52, 54, 58, 58, 62, 64, 66, 67, 68, 69, 70, 71, 72, 73, 74, 75, 76, 78, 79, 80, 82, 83, 84, 85, 86, 88, 89, 90, 91, 92, 93, 96, 97, 98, 99, 100, 101, 103, 104, 105, 106, 107, 107, 109, 110, 110, 110, 111, 112, 114, 115, 116, 117, 119, 120, 122, 123, 124, 125, 126, 127, 128, 129, 130, 131, 132, 133, 134, 135, 136, 138, 139, 140, 141, 142, 143, 144, 145, 146, 147, 148, 149, 151, 152, 153, 154, 155, 156, 157, 158, 159, 160, 160, 163, 166, 167, 168, 169, 171, 172, 173, 174, 175, 176, 177, 178, 179, 180, 181, 182, 183, 184, 185, 186, 187, 188, 189, 190, 191, 192, 193, 194, 195, 196, 196, 196, 197, 198, 199, 199, 200, 203, 205, 206, 207, 208, 210, 211, 212, 213, 215, 216, 217, 218, 219, 220, 221, 222, 223, 224, 225, 226, 227, 228, 229, 230, 231, 232, 233, 234, 235, 236, 239, 240, 241, 241, 242, 242, 245, 246, 247, 248, 249, 250, 251, 252, 253, 254, 255, 256, 257, 258, 259, 260, 261, 262, 263, 264, 265, 266, 266, 269, 270, 275, 275, 278, 279, 280, 281, 282, 283, 286, 287, 288, 289, 290, 291, 292, 292, 293, 293, 294, 294, 298, 300, 301, 302, 303, 304, 305, 306, 307, 308, 309, 310, 311, 312, 313, 314, 316, 317, 318, 319, 319, 319, 320, 321, 322, 322, 323, 327, 327, 327, 328, 329, 330, 331, 331, 332, 333, 335, 335, 341, 342, 343, 344, 345, 346, 347, 348, 349, 350, 351, 352, 353, 354, 355, 356, 357, 358, 359, 360, 361, 362, 363, 364, 365, 366, 367, 368, 369, 371, 372, 373, 374, 375, 376, 377, 378, 379, 380, 382, 383, 384, 385, 386, 386, 389, 389, 389, 390, 391, 393, 394, 395, 396, 397, 398, 399, 400, 401, 402, 403, 404, 405, 406, 407, 408, 409, 410, 411, 412, 413, 414, 415, 416, 419, 420, 421, 422, 423, 424, 425, 426, 428, 429, 430, 431, 433, 434, 435, 436, 437, 438, 439, 439, 440, 440, 442, 444, 445, 446, 447, 448, 449, 450, 451, 452, 453, 454, 455, 456, 457, 458, 459, 460, 461, 462, 463, 464, 465, 466, 467, 468, 469, 470, 471, 472, 473, 474, 476, 477, 478, 478, 479, 482, 484, 485, 486, 487, 488, 489, 490, 491, 492, 493, 495, 497, 499, 500, 501, 502, 503, 505, 506, 507, 508, 509, 510, 511, 512, 513, 514, 515, 516, 517, 518, 519, 520, 520, 521, 521, 524, 525, 526, 527, 528, 529, 530, 531, 532, 534, 535, 536, 537, 538, 539, 540, 541, 543, 544, 545, 545, 546, 546, 547, 547, 549, 550, 556, 557, 558, 559, 560, 561, 562, 563, 564, 565, 566, 567, 568, 571, 571, 572, 572, 573, 573, 575, 577, 580, 581, 582, 583, 585, 586, 587, 588, 590, 591, 592, 593, 594, 595, 596, 597, 598, 598, 598, 599, 600, 601, 601, 602, 606, 606, 606, 607, 608, 609, 610, 610, 611, 612, 614, 614, 616, 616, 621, 622, 623, 624, 625, 626, 627, 628, 629, 630, 631, 632, 633, 634, 635, 636, 637, 638, 639, 640, 641, 642, 643, 644, 646, 648, 649, 650, 651, 652, 653, 654, 655, 656, 657, 658, 659, 661, 663, 664, 665, 665, 668, 668, 668, 669, 670, 673, 674, 675, 676, 677, 678, 680, 681, 682, 683, 684, 685, 687, 688, 689, 690, 692, 694, 695, 696, 697, 698, 699, 700, 701, 702, 703, 704, 705, 706, 707, 708, 709, 711, 712, 713, 715, 716, 717, 718, 718, 719, 719, 721, 723, 724, 725, 726, 727, 728, 730, 731, 732, 733, 734, 735, 736, 739, 740, 741, 742, 743, 744, 745, 746, 747, 748, 749, 750, 751, 752, 754, 754, 754, 755, 756, 758, 761, 763, 764, 767, 768, 769, 770, 771, 772, 773, 774, 775, 776, 777, 778, 780, 781, 782, 784, 785, 786, 787, 788, 789, 790, 791, 792, 793, 794, 797, 798, 799, 799, 800, 800, 803, 804, 805, 807, 808, 809, 810, 811, 812, 813, 814, 815, 816, 818, 820, 821, 822, 823, 824, 824, 825, 825, 826, 826, 827, 828, 829, 833, 833, 836, 837, 838, 840, 841, 842, 843, 844, 845, 846, 847, 848, 849, 851, 851, 852, 852, 854, 856, 859, 860, 861, 862, 863, 864, 865, 866, 867, 868, 869, 870, 871, 872, 873, 874, 876, 877, 877, 877, 878, 879, 880, 880, 881, 885, 885, 885, 886, 887, 888, 889, 889, 890, 891, 893, 893, 895, 895, 899, 900, 902, 903, 904, 905, 906, 907, 908, 909, 910, 911, 912, 913, 914, 915, 916, 917, 918, 919, 920, 921, 923, 924, 926, 928, 929, 930, 931, 932, 933, 934, 935, 936, 937, 938, 940, 941, 942, 943, 944, 944, 946, 947, 947, 947, 948, 949, 951, 952, 954, 955, 956, 957, 958, 959, 960, 961, 964, 965, 966, 967, 968, 969, 970, 972, 973, 974, 975, 976, 977, 978, 979, 980, 981, 982, 984, 985, 986, 987, 988, 990, 991, 992, 993, 994, 996, 997, 997, 998, 998, 1000, 1002, 1003, 1004, 1005, 1006, 1007, 1008, 1009, 1010, 1011, 1012, 1013, 1014, 1015, 1016, 1017, 1018, 1019, 1020, 1021, 1022, 1023, 1024, 1026, 1027, 1028, 1029, 1030, 1031, 1032, 1033, 1033, 1033, 1034, 1035, 1037, 1040, 1042, 1043, 1044, 1045, 1046, 1047, 1048, 1049, 1050, 1051, 1052, 1053, 1054, 1055, 1056, 1057, 1058, 1059, 1060, 1061, 1063, 1064, 1065, 1066, 1067, 1068, 1069, 1070, 1071, 1072, 1073, 1074, 1075, 1076, 1077, 1078, 1078, 1079, 1079, 1082, 1083, 1084, 1086, 1087, 1088, 1089, 1090, 1091, 1092, 1093, 1094, 1095, 1096, 1097, 1098, 1099, 1100, 1101, 1103, 1103, 1104, 1104, 1105, 1105, 1106, 1107, 1108, 1112, 1112, 1114, 1115, 1116, 1117, 1118, 1119, 1120, 1121, 1122, 1123, 1124, 1125, 1126, 1127, 1128, 1129, 1129, 1130, 1130, 1131, 1131, 1135, 1137, 1138, 1139, 1140, 1141, 1142, 1143, 1144, 1146, 1147, 1148, 1149, 1150, 1152, 1153, 1154, 1155, 1156, 1156, 1156, 1157, 1158, 1159, 1159, 1160, 1164, 1164, 1164, 1165, 1166, 1167, 1168, 1168, 1169, 1170, 1172, 1172, 1174, 1174, 1178, 1179, 1180, 1181, 1182, 1184, 1185, 1186, 1187, 1188, 1189, 1190, 1191, 1192, 1193, 1194, 1195, 1196, 1197, 1198, 1199, 1200, 1201, 1202, 1203, 1204, 1205, 1206, 1207, 1208, 1209, 1210, 1211, 1212, 1213, 1214, 1215, 1216, 1217, 1219, 1220, 1221, 1222, 1223, 1223, 1225, 1226, 1226, 1226, 1227, 1228, 1230, 1231, 1232, 1233, 1234, 1235, 1236, 1237, 1238, 1239, 1240, 1241, 1242, 1243, 1244, 1246, 1248, 1249, 1250, 1251, 1252, 1253, 1254, 1255, 1256, 1257, 1258, 1259, 1260, 1261, 1262, 1263, 1264, 1266, 1267, 1268, 1269, 1270, 1271, 1272, 1273, 1274, 1275, 1277, 1277, 1279, 1281, 1282, 1283, 1284, 1285, 1286, 1287, 1288, 1289, 1290, 1291, 1292, 1293, 1294, 1295, 1296, 1297, 1298, 1299, 1300, 1301, 1302, 1303, 1304, 1305, 1306, 1308, 1309, 1310, 1311, 1312, 1312, 1312, 1313, 1316, 1319, 1321, 1322, 1323, 1324, 1325, 1326, 1327, 1328, 1329, 1330, 1331, 1332, 1333, 1334, 1335, 1336, 1337, 1338, 1339, 1340, 1341, 1342, 1343, 1344, 1345, 1346, 1347, 1348, 1349, 1350, 1352, 1353, 1355, 1356, 1358, 1358, 1362, 1363, 1365, 1366, 1368, 1369, 1370, 1372, 1373, 1374, 1375, 1376, 1377, 1378, 1379, 1380, 1381, 1382, 1382, 1384, 1384, 1385, 1386, 1387, 1391, 1391, 1393, 1394, 1395, 1396, 1397, 1398, 1399, 1400, 1401, 1402, 1403, 1404, 1405, 1406, 1407, 1408, 1408, 1409, 1409, 1410, 1410, 1412, 1414, 1416, 1417, 1418, 1419, 1420, 1421, 1422, 1424, 1425, 1427, 1429, 1430, 1433, 1434, 1435, 1435, 1435, 1436, 1437, 1438, 1438, 1439, 1443, 1443, 1443, 1444, 1445, 1446, 1447, 1447, 1448, 1449, 1451, 1451, 1453, 1453, 1457, 1458, 1459, 1460, 1461, 1462, 1463, 1464, 1465, 1466, 1467, 1468, 1469, 1471, 1472, 1473, 1475, 1476, 1477, 1478, 1480, 1481, 1482, 1483, 1484, 1486, 1487, 1488, 1489, 1490, 1491, 1492, 1493, 1494, 1496, 1498, 1499, 1500, 1501, 1502, 1502, 1504, 1505, 1505, 1505, 1506, 1509, 1510, 1511, 1512, 1514, 1515, 1516, 1517, 1518, 1520, 1521, 1522, 1523, 1524, 1525, 1526, 1528, 1529, 1530, 1531, 1532, 1533, 1534, 1535, 1536, 1537, 1538, 1539, 1540, 1541, 1542, 1543, 1545, 1546, 1547, 1549, 1550, 1551, 1553, 1554, 1555, 1555, 1556, 1556, 1558, 1560, 1561, 1562, 1564, 1565, 1566, 1567, 1569, 1570, 1571, 1572, 1573, 1574, 1576, 1577, 1579, 1580, 1581, 1582, 1583, 1584, 1585, 1586, 1587, 1588, 1589, 1590, 1591, 1591, 1591, 1592, 1593, 1594, 1594, 1598, 1600, 1601, 1602, 1603, 1604, 1605, 1606, 1607, 1608, 1609, 1610, 1611, 1612, 1613, 1614, 1615, 1616, 1617, 1618, 1619, 1620, 1621, 1622, 1623, 1624, 1625, 1627, 1628, 1629, 1630, 1631, 1632, 1633, 1634, 1635, 1636, 1636, 1637, 1637, 1640, 1641, 1642, 1643, 1644, 1645, 1647, 1648, 1649, 1650, 1653, 1654, 1655, 1656, 1657, 1660, 1661, 1661, 1662, 1662, 1663, 1663, 1664, 1665, 1666, 1670, 1670, 1673, 1674, 1675, 1676, 1677, 1678, 1679, 1680, 1681, 1682, 1683, 1684, 1685, 1686, 1687, 1687, 1689, 1689, 1691, 1693, 1695, 1696, 1697, 1698, 1699, 1700, 1702, 1704, 1705, 1706, 1707, 1709, 1711, 1712, 1713, 1714, 1714, 1714, 1715, 1716, 1717, 1717, 1718, 1722, 1722, 1722, 1723, 1724, 1725, 1726, 1726, 1727, 1728, 1732, 1732, 1737, 1738, 1739, 1740, 1741, 1743, 1744, 1745, 1746, 1747, 1748, 1751, 1752, 1753, 1754, 1755, 1757, 1758, 1759, 1760, 1762, 1763, 1764, 1765, 1766, 1767, 1768, 1769, 1770, 1771, 1772, 1773, 1774, 1775, 1777, 1778, 1779, 1780, 1781, 1781, 1783, 1785, 1786, 1788, 1789, 1790, 1791, 1792, 1793, 1794, 1795, 1796, 1797, 1798, 1800, 1801, 1802, 1803, 1805, 1806, 1807, 1808, 1809, 1810, 1811, 1812, 1813, 1814, 1815, 1816, 1818, 1819, 1820, 1821, 1822, 1823, 1824, 1825, 1826, 1827, 1828, 1829, 1830, 1831, 1832, 1833, 1834, 1834, 1835, 1835, 1837, 1839, 1840, 1841, 1842, 1843, 1844, 1847, 1848, 1849, 1850, 1851, 1852, 1853, 1854, 1855, 1856, 1858, 1859, 1861, 1862, 1863, 1864, 1866, 1867, 1868, 1869, 1870, 1870, 1870, 1871, 1872, 1873, 1873, 1874, 1877, 1879, 1880, 1881, 1882, 1883, 1884, 1886, 1887, 1888, 1889, 1890, 1891, 1892, 1893, 1894, 1895, 1896, 1897, 1898, 1899, 1900, 1901, 1902, 1903, 1904, 1905, 1906, 1907, 1909, 1910, 1911, 1912, 1913, 1914, 1915, 1915, 1916, 1916, 1919, 1920, 1921, 1923, 1924, 1925, 1926, 1927, 1928, 1929, 1930, 1932, 1933, 1934, 1935, 1936, 1939, 1940, 1940, 1941, 1941, 1942, 1942, 1943, 1944, 1945, 1949, 1949, 1951, 1953, 1954, 1955, 1956, 1957, 1958, 1959, 1960, 1961, 1962, 1963, 1965, 1966, 1966, 1967, 1967, 1968, 1968, 1970, 1972, 1974, 1975, 1976, 1977, 1978, 1979, 1981, 1982, 1983, 1984, 1985, 1987, 1988, 1989, 1991, 1992, 1995, 1996, 1996, 1997, 2001, 2001, 2001, 2002, 2003, 2004, 2005, 2005, 2006, 2007, 2009, 2009, 2011, 2011, 2015, 2016, 2017, 2018, 2019, 2021, 2022, 2023, 2024, 2025, 2026, 2027, 2028, 2029, 2030, 2031, 2032, 2033, 2034, 2035, 2036, 2037, 2039, 2040, 2041, 2042, 2043, 2044, 2045, 2046, 2049, 2050, 2051, 2054, 2056, 2057, 2058, 2059, 2064, 2065, 2067, 2069, 2070, 2071, 2072, 2073, 2074, 2076, 2077, 2078, 2079, 2080, 2081, 2082, 2083, 2084, 2085, 2086, 2087, 2088, 2089, 2090, 2091, 2092, 2093, 2094, 2095, 2096, 2097, 2098, 2099, 2100, 2101, 2102, 2103, 2104, 2105, 2106, 2107, 2108, 2109, 2110, 2112, 2113, 2113, 2114, 2114, 2116, 2118, 2119, 2120, 2121, 2122, 2123, 2124, 2125, 2126, 2127, 2128, 2129, 2130, 2132, 2133, 2134, 2135, 2136, 2137, 2138, 2140, 2141, 2142, 2143, 2145, 2146, 2147, 2148, 2149, 2149, 2149, 2150, 2151, 2152, 2152, 2153, 2156, 2159, 2160, 2161, 2162, 2163, 2165, 2166, 2168, 2169, 2170, 2171, 2172, 2173, 2174, 2176, 2177, 2178, 2179, 2180, 2181, 2182, 2183, 2184, 2185, 2186, 2187, 2188, 2190, 2191, 2192, 2193, 2194, 2194, 2195, 2195, 2198, 2199, 2200, 2201, 2202, 2203, 2204, 2205, 2206, 2207, 2209, 2210, 2211, 2212, 2213, 2214, 2215, 2216, 2217, 2218, 2219, 2219, 2220, 2220, 2221, 2221, 2222, 2223, 2224, 2228, 2228, 2230, 2233, 2234, 2235, 2236, 2238, 2239, 2240, 2241, 2242, 2243, 2244, 2245, 2245, 2246, 2246, 2247, 2247, 2249, 2251, 2253, 2255, 2256, 2257, 2258, 2259, 2260, 2262, 2263, 2264, 2265, 2266, 2267, 2268, 2269, 2270, 2271, 2272, 2272, 2272, 2273, 2274, 2275, 2275, 2276, 2280, 2280, 2280, 2281, 2282, 2283, 2284, 2284, 2285, 2286, 2288, 2288, 2290, 2290, 2294, 2295, 2297, 2299, 2300, 2302, 2303, 2304, 2306, 2307, 2308, 2309, 2310, 2311, 2312, 2313, 2314, 2315, 2317, 2318, 2319, 2320, 2321, 2322, 2323, 2324, 2325, 2326, 2328, 2329, 2330, 2331, 2332, 2333, 2335, 2337, 2338, 2339, 2339, 2341, 2342, 2342, 2342, 2343, 2344, 2346, 2347, 2348, 2349, 2350, 2351, 2352, 2353, 2354, 2355, 2356, 2357, 2359, 2360, 2362, 2364, 2365, 2366, 2367, 2368, 2369, 2370, 2371, 2372, 2373, 2374, 2375, 2376, 2377, 2378, 2379, 2380, 2381, 2382, 2383, 2384, 2385, 2386, 2387, 2388, 2389, 2391, 2392, 2392, 2393, 2393, 2395, 2398, 2399, 2400, 2401, 2402, 2403, 2404, 2405, 2406, 2407, 2408, 2409, 2410, 2411, 2412, 2413, 2414, 2416, 2417, 2418, 2419, 2420, 2421, 2422, 2423, 2424, 2425, 2426, 2427, 2428, 2428, 2428, 2429, 2431, 2431, 2432, 2435, 2437, 2438, 2439, 2440, 2441, 2442, 2443, 2445, 2446, 2447, 2448, 2449, 2450, 2451, 2453, 2454, 2457, 2458, 2459, 2461, 2462, 2463, 2464, 2465, 2467, 2468, 2469, 2470, 2471, 2472, 2473, 2473, 2474, 2474, 2477, 2478, 2479, 2480, 2481, 2482, 2483, 2484, 2485, 2486, 2487, 2488, 2489, 2490, 2491, 2492, 2493, 2494, 2495, 2496, 2497, 2498, 2498, 2499, 2499, 2500, 2500, 2501, 2503, 2507, 2507, 2509, 2510, 2511, 2512, 2513, 2514, 2516, 2517, 2518, 2519, 2520, 2521, 2522, 2523, 2524, 2524, 2525, 2525, 2526, 2526, 2528, 2530, 2532, 2533, 2534, 2535, 2537, 2538, 2539, 2540, 2541, 2542, 2543, 2544, 2545, 2546, 2547, 2548, 2549, 2551, 2551, 2551, 2552, 2553, 2554, 2554, 2555, 2559, 2559, 2559, 2560, 2561, 2562, 2563, 2563, 2564, 2565, 2567, 2567, 2569, 2569, 2573, 2574, 2575, 2576, 2577, 2578, 2579, 2580, 2581, 2582, 2583, 2584, 2585, 2586, 2587, 2588, 2589, 2590, 2591, 2592, 2593, 2594, 2595, 2596, 2597, 2598, 2599, 2601, 2602, 2603, 2604, 2605, 2606, 2607, 2608, 2610, 2611, 2612, 2614, 2615, 2616, 2617, 2618, 2618, 2620, 2621, 2621, 2621, 2622, 2623, 2625, 2626, 2627, 2628, 2629, 2630, 2631, 2633, 2634, 2636, 2637, 2638, 2639, 2640, 2641, 2642, 2643, 2644, 2645, 2646, 2647, 2648, 2649, 2650, 2651, 2652, 2653, 2654, 2655, 2657, 2658, 2659, 2660, 2661, 2662, 2663, 2664, 2665, 2666, 2667, 2668, 2669, 2670, 2671, 2671, 2672, 2672, 2674, 2676, 2677, 2678, 2679, 2680, 2681, 2682, 2683, 2685, 2686, 2689, 2690, 2691, 2692, 2693, 2694, 2695, 2696, 2697, 2698, 2699, 2700, 2701, 2702, 2703, 2704, 2705, 2706, 2707, 2707, 2707, 2709, 2710, 2710, 2711, 2716, 2717, 2718, 2719, 2720, 2721, 2722, 2723, 2724, 2725, 2726, 2727, 2728, 2729, 2730, 2731, 2732, 2733, 2734, 2736, 2737, 2738, 2739, 2740, 2742, 2743, 2744, 2745, 2746, 2748, 2749, 2750, 2751, 2752, 2752, 2753, 2753, 2756, 2757, 2758, 2760, 2761, 2762, 2763, 2764, 2765, 2766, 2767, 2768, 2769, 2770, 2771, 2772, 2774, 2775, 2776, 2777, 2777, 2778, 2778, 2779, 2779, 2780, 2781, 2782, 2786, 2786, 2788, 2790]
